certificates/rado_a11_c124_N26.cnf
c Rad2 upper bound instance: x1 + 11*x2 - x3 = 124, interval [1,26]
p cnf 26 122
1 9 12 0
-1 -9 -12 0
1 13 20 0
-1 -13 -20 0
2 10 12 0
-2 -10 -12 0
2 13 21 0
-2 -13 -21 0
3 11 12 0
-3 -11 -12 0
3 13 22 0
-3 -13 -22 0
1 4 11 0
-1 -4 -11 0
4 12 0
-4 -12 0
4 13 23 0
-4 -13 -23 0
2 5 11 0
-2 -5 -11 0
5 12 13 0
-5 -12 -13 0
5 13 24 0
-5 -13 -24 0
3 6 11 0
-3 -6 -11 0
6 12 14 0
-6 -12 -14 0
6 13 25 0
-6 -13 -25 0
4 7 11 0
-4 -7 -11 0
7 12 15 0
-7 -12 -15 0
7 13 26 0
-7 -13 -26 0
5 8 11 0
-5 -8 -11 0
8 12 16 0
-8 -12 -16 0
6 9 11 0
-6 -9 -11 0
9 12 17 0
-9 -12 -17 0
7 10 11 0
-7 -10 -11 0
10 12 18 0
-10 -12 -18 0
8 11 0
-8 -11 0
11 12 19 0
-11 -12 -19 0
9 11 12 0
-9 -11 -12 0
12 20 0
-12 -20 0
10 11 13 0
-10 -11 -13 0
12 13 21 0
-12 -13 -21 0
11 14 0
-11 -14 0
12 14 22 0
-12 -14 -22 0
1 10 15 0
-1 -10 -15 0
11 12 15 0
-11 -12 -15 0
12 15 23 0
-12 -15 -23 0
2 10 16 0
-2 -10 -16 0
11 13 16 0
-11 -13 -16 0
12 16 24 0
-12 -16 -24 0
3 10 17 0
-3 -10 -17 0
11 14 17 0
-11 -14 -17 0
12 17 25 0
-12 -17 -25 0
4 10 18 0
-4 -10 -18 0
11 15 18 0
-11 -15 -18 0
12 18 26 0
-12 -18 -26 0
5 10 19 0
-5 -10 -19 0
11 16 19 0
-11 -16 -19 0
6 10 20 0
-6 -10 -20 0
11 17 20 0
-11 -17 -20 0
7 10 21 0
-7 -10 -21 0
11 18 21 0
-11 -18 -21 0
8 10 22 0
-8 -10 -22 0
11 19 22 0
-11 -19 -22 0
9 10 23 0
-9 -10 -23 0
11 20 23 0
-11 -20 -23 0
10 24 0
-10 -24 0
11 21 24 0
-11 -21 -24 0
10 11 25 0
-10 -11 -25 0
11 22 25 0
-11 -22 -25 0
1 9 26 0
-1 -9 -26 0
10 12 26 0
-10 -12 -26 0
11 23 26 0
-11 -23 -26 0
