certificates/rado_a11_c124_N26.drat
11 10 -26 0
10 -25 -26 0
-25 -26 0
d 10 -25 -26 0
-10 -26 0
-26 0
-24 0
10 0
-11 0
8 0
14 0
23 0
21 0
-22 0
-9 0
-7 0
25 0
19 0
6 0
12 0
1 0
4 0
13 0
-17 0
0
